(set-logic HORN)
(declare-fun state (Int Int Int Bool Int (Array Int Int) Int (Array Int Int) Bool Int (Array Int Int) (Array Int Int) Int) Bool)
(assert (forall ((|.x.14| Int) (|main@%.0.i_0_0| Int) (|main@%_2_0_0| Int) (|main@%assume.flag.0_0_0| Bool) (|main@%_5_0_0| Int) (|main@%shadow.mem.1_0_0| (Array Int Int)) (|main@%_6_0_0| Int) (|main@%shadow.mem1.1_0_0| (Array Int Int)) (|main@%_4_0_0| Bool) (|main@%.01.i1_0_0| Int) (|main@%shadow.mem.0_0_0| (Array Int Int)) (|main@%shadow.mem1.0_0_0| (Array Int Int)) (|main@%_8_0| Int) (|main@%_2_1| Int) (|main@%_4_1| Bool) (|main@%_5_1| Int) (|main@%_6_1| Int) (|main@%.01.i1_2| Int) (|.x.15| Int) (|.x.16| Int) (|.x.17| Bool) (|.x.18| (Array Int Int)) (|.x.19| (Array Int Int)) (|main@%shadow.mem.0_2| (Array Int Int)) (|main@%shadow.mem1.0_2| (Array Int Int)) (|.xtv.1| Int)) (=> (= .x.14 0) (state |.x.14| |main@%.0.i_0_0| |main@%_2_0_0| |main@%assume.flag.0_0_0| |main@%_5_0_0| |main@%shadow.mem.1_0_0| |main@%_6_0_0| |main@%shadow.mem1.1_0_0| |main@%_4_0_0| |main@%.01.i1_0_0| |main@%shadow.mem.0_0_0| |main@%shadow.mem1.0_0_0| |main@%_8_0|))))
(assert (forall ((|.x.14| Int) (|main@%.0.i_0_0| Int) (|main@%_2_0_0| Int) (|main@%assume.flag.0_0_0| Bool) (|main@%_5_0_0| Int) (|main@%shadow.mem.1_0_0| (Array Int Int)) (|main@%_6_0_0| Int) (|main@%shadow.mem1.1_0_0| (Array Int Int)) (|main@%_4_0_0| Bool) (|main@%.01.i1_0_0| Int) (|main@%shadow.mem.0_0_0| (Array Int Int)) (|main@%shadow.mem1.0_0_0| (Array Int Int)) (|main@%_8_0| Int) (|main@%_2_1| Int) (|main@%_4_1| Bool) (|main@%_5_1| Int) (|main@%_6_1| Int) (|main@%.01.i1_2| Int) (|.x.15| Int) (|.x.16| Int) (|.x.17| Bool) (|.x.18| (Array Int Int)) (|.x.19| (Array Int Int)) (|main@%shadow.mem.0_2| (Array Int Int)) (|main@%shadow.mem1.0_2| (Array Int Int)) (|.xtv.1| Int)) (=> (and (state |.x.14| |main@%.0.i_0_0| |main@%_2_0_0| |main@%assume.flag.0_0_0| |main@%_5_0_0| |main@%shadow.mem.1_0_0| |main@%_6_0_0| |main@%shadow.mem1.1_0_0| |main@%_4_0_0| |main@%.01.i1_0_0| |main@%shadow.mem.0_0_0| |main@%shadow.mem1.0_0_0| |main@%_8_0|) (let ((.def_26 (<= main@%_2_1 0))) (let ((.def_27 (not .def_26))) (let ((.def_43 (= .x.15 1))) (let ((.def_46 (= main@%.0.i_0_0 .x.16))) (let ((.def_49 (= main@%assume.flag.0_0_0 .x.17))) (let ((.def_52 (= main@%shadow.mem.1_0_0 .x.18))) (let ((.def_55 (= main@%shadow.mem1.1_0_0 .x.19))) (let ((.def_60 (= .x.16 0))) (let ((.def_63 (= .x.15 2))) (let ((.def_65 (= main@%.01.i1_0_0 main@%.01.i1_2))) (let ((.def_68 (= main@%shadow.mem.0_0_0 main@%shadow.mem.0_2))) (let ((.def_71 (= main@%shadow.mem1.0_0_0 main@%shadow.mem1.0_2))) (let ((.def_80 (store main@%shadow.mem.0_0_0 (+ main@%_5_0_0 main@%.01.i1_0_0) main@%_8_0))) (let ((.def_83 (store main@%shadow.mem1.0_0_0 (+ main@%_6_0_0 main@%.01.i1_0_0) main@%_8_0))) (let ((.def_87 (<= (+ main@%_2_0_0 (* (- 1) main@%.01.i1_0_0)) 1))) (let ((.def_95 (<= main@%_6_0_0 0))) (let ((.def_96 (or (not (<= (+ main@%_6_0_0 main@%.01.i1_0_0) 0)) .def_95))) (let ((.def_100 (<= main@%_5_0_0 0))) (let ((.def_101 (or (not (<= (+ main@%_5_0_0 main@%.01.i1_0_0) 0)) .def_100))) (let ((.def_103 (not .def_100))) (let ((.def_105 (not .def_95))) (let ((.def_111 (= .x.14 1))) (let ((.def_113 (= main@%_2_0_0 main@%_2_1))) (let ((.def_115 (= main@%_5_0_0 main@%_5_1))) (let ((.def_117 (= main@%_6_0_0 main@%_6_1))) (let ((.def_119 (= main@%_4_0_0 main@%_4_1))) (let ((.def_147 (not (<= main@%_2_0_0 main@%.0.i_0_0)))) (let ((.def_164 (or .def_95 (not (<= (+ main@%.0.i_0_0 main@%_6_0_0) 0))))) (let ((.def_169 (or .def_100 (not (<= (+ main@%.0.i_0_0 main@%_5_0_0) 0))))) (let ((.def_173 (= (select main@%shadow.mem1.1_0_0 (+ main@%.0.i_0_0 main@%_6_0_0)) (select main@%shadow.mem.1_0_0 (+ main@%.0.i_0_0 main@%_5_0_0))))) (let ((.def_177 (= .x.14 2))) (or (or (or (or (and (and (= .def_27 main@%_4_1) (and (= .x.14 0) (and (not (<= main@%_5_1 0)) (not (<= main@%_6_1 0))))) (or (and (= main@%.01.i1_2 0) (and (and (and (and (and .def_27 .def_43) .def_46) .def_49) .def_52) .def_55)) (and (and (and (and (and (and .def_26 (= main@%_4_1 .x.17)) .def_60) .def_63) .def_65) .def_68) .def_71))) (and (and (and (and (and (and (= (+ main@%.01.i1_0_0 (* (- 1) main@%.01.i1_2)) (- 1)) (and (= main@%shadow.mem.0_2 .def_80) (and (= main@%shadow.mem1.0_2 .def_83) (and (not .def_87) (and (and (and (and (and .def_55 (and .def_52 (and .def_49 (and .def_43 .def_46)))) .def_96) .def_101) .def_103) .def_105))))) .def_111) .def_113) .def_115) .def_117) .def_119)) (and (= main@%_4_0_0 .x.17) (and (= .x.18 .def_80) (and (= .x.19 .def_83) (and .def_119 (and .def_117 (and .def_115 (and .def_113 (and .def_111 (and .def_87 (and .def_105 (and .def_103 (and .def_101 (and .def_96 (and .def_71 (and .def_68 (and .def_65 (and .def_60 .def_63)))))))))))))))))) (and (and (= (+ main@%.0.i_0_0 (* (- 1) .x.16)) (- 1)) (and (= .x.17 (and main@%assume.flag.0_0_0 .def_147)) (and (and (and (and .def_119 (and .def_117 (and .def_115 (and .def_113 (and .def_105 (and .def_103 (and .def_71 (and .def_68 (and .def_65 (and .def_63 (and .def_52 .def_55))))))))))) .def_164) .def_169) .def_173))) .def_177)) (and (= .x.15 3) (and (not .def_173) (and .def_177 (and .def_147 (and .def_169 (and .def_164 (and .def_119 (and .def_117 (and .def_115 (and .def_113 (and .def_105 (and .def_103 (and .def_71 (and .def_68 (and .def_65 (and .def_55 (and .def_52 (and .def_49 (and main@%assume.flag.0_0_0 .def_46)))))))))))))))))))))))))))))))))))))))))))))))))))) (state |.x.15| |.x.16| |main@%_2_1| |.x.17| |main@%_5_1| |.x.18| |main@%_6_1| |.x.19| |main@%_4_1| |main@%.01.i1_2| |main@%shadow.mem.0_2| |main@%shadow.mem1.0_2| |.xtv.1|))))
(assert (forall ((|.x.14| Int) (|main@%.0.i_0_0| Int) (|main@%_2_0_0| Int) (|main@%assume.flag.0_0_0| Bool) (|main@%_5_0_0| Int) (|main@%shadow.mem.1_0_0| (Array Int Int)) (|main@%_6_0_0| Int) (|main@%shadow.mem1.1_0_0| (Array Int Int)) (|main@%_4_0_0| Bool) (|main@%.01.i1_0_0| Int) (|main@%shadow.mem.0_0_0| (Array Int Int)) (|main@%shadow.mem1.0_0_0| (Array Int Int)) (|main@%_8_0| Int) (|main@%_2_1| Int) (|main@%_4_1| Bool) (|main@%_5_1| Int) (|main@%_6_1| Int) (|main@%.01.i1_2| Int) (|.x.15| Int) (|.x.16| Int) (|.x.17| Bool) (|.x.18| (Array Int Int)) (|.x.19| (Array Int Int)) (|main@%shadow.mem.0_2| (Array Int Int)) (|main@%shadow.mem1.0_2| (Array Int Int)) (|.xtv.1| Int)) (=> (state |.x.14| |main@%.0.i_0_0| |main@%_2_0_0| |main@%assume.flag.0_0_0| |main@%_5_0_0| |main@%shadow.mem.1_0_0| |main@%_6_0_0| |main@%shadow.mem1.1_0_0| |main@%_4_0_0| |main@%.01.i1_0_0| |main@%shadow.mem.0_0_0| |main@%shadow.mem1.0_0_0| |main@%_8_0|) (not (= .x.14 3)))))
(check-sat)
